Solver command line: ['C:\\gurobi1102\\win64\\bin\\gurobi.bat']

Set parameter Username
Academic license - for non-commercial use only - expires 2025-06-25
Read LP format model from file C:\Users\danin\AppData\Local\Temp\tmpdn7yvct3.pyomo.lp
Reading time = 0.43 seconds
x1: 65100 rows, 65000 columns, 437500 nonzeros
Set parameter Cuts to value 1
Set parameter Presolve to value 1
Set parameter TimeLimit to value 1800
Set parameter MIPGap to value 0.01
Set parameter Threads to value 6
Gurobi Optimizer version 11.0.2 build v11.0.2rc0 (win64 - Windows 11.0 (22631.2))

CPU model: AMD Ryzen 5 4600H with Radeon Graphics, instruction set [SSE2|AVX|AVX2]
Thread count: 6 physical cores, 12 logical processors, using up to 6 threads

Optimize a model with 65100 rows, 65000 columns and 437500 nonzeros
Model fingerprint: 0x566f32a5
Variable types: 1250 continuous, 63750 integer (63750 binary)
Coefficient statistics:
  Matrix range     [1e+00, 2e+02]
  Objective range  [4e+00, 8e+01]
  Bounds range     [1e+00, 1e+00]
  RHS range        [1e+00, 2e+02]
Presolve removed 60925 rows and 44250 columns
Presolve time: 0.49s
Presolved: 4175 rows, 20750 columns, 71000 nonzeros
Variable types: 525 continuous, 20225 integer (20225 binary)

Root relaxation: objective 1.031953e+03, 2705 iterations, 0.12 seconds (0.18 work units)

    Nodes    |    Current Node    |     Objective Bounds      |     Work
 Expl Unexpl |  Obj  Depth IntInf | Incumbent    BestBd   Gap | It/Node Time

     0     0 1031.95309    0   26          - 1031.95309      -     -    0s
H    0     0                    1466.6565684 1031.95309  29.6%     -    0s
H    0     0                    1046.7010643 1031.95309  1.41%     -    0s
     0     0          -    0      1046.70106 1041.49650  0.50%     -    1s

Cutting planes:
  Learned: 72
  Cover: 1
  Implied bound: 7
  Clique: 7
  RLT: 58
  Relax-and-lift: 1

Explored 1 nodes (3680 simplex iterations) in 1.20 seconds (0.95 work units)
Thread count was 6 (of 12 available processors)

Solution count 2: 1046.7 1466.66 

Optimal solution found (tolerance 1.00e-02)
Best objective 1.046701064350e+03, best bound 1.041496500965e+03, gap 0.4972%

